Interaction/Confidence_interval_model_files/model-ce-new.lp
\ Model birth-death-regulation-capture-efficiency
\ LP format - for model browsing. Use MPS format to capture full model detail.
Maximize
  k_reg
Subject To
 R0: k_deg_2 = 1
 B_lb_0,_0: 0.25 p[1,1] + 0.125 p[1,2] + 0.0625 p[1,3] + 0.03125 p[1,4]
   + 0.015625 p[1,5] + 0.0078125 p[1,6] + 0.00390625 p[1,7] + 0.125 p[2,1]
   + 0.0625 p[2,2] + 0.03125 p[2,3] + 0.015625 p[2,4] + 0.0078125 p[2,5]
   + 0.00390625 p[2,6] + 0.001953125 p[2,7] + 0.0625 p[3,1]
   + 0.03125 p[3,2] + 0.015625 p[3,3] + 0.0078125 p[3,4]
   + 0.00390625 p[3,5] + 0.001953125 p[3,6] + 9.765625e-04 p[3,7]
   + 0.03125 p[4,1] + 0.015625 p[4,2] + 0.0078125 p[4,3]
   + 0.00390625 p[4,4] + 0.001953125 p[4,5] + 9.765625e-04 p[4,6]
   + 4.8828125e-04 p[4,7] + 0.015625 p[5,1] + 0.0078125 p[5,2]
   + 0.00390625 p[5,3] + 0.001953125 p[5,4] + 9.765625e-04 p[5,5]
   + 4.8828125e-04 p[5,6] + 2.44140625e-04 p[5,7] >= 0.2912433333333334
 B_ub_0,_0: 0.25 p[1,1] + 0.125 p[1,2] + 0.0625 p[1,3] + 0.03125 p[1,4]
   + 0.015625 p[1,5] + 0.0078125 p[1,6] + 0.00390625 p[1,7] + 0.125 p[2,1]
   + 0.0625 p[2,2] + 0.03125 p[2,3] + 0.015625 p[2,4] + 0.0078125 p[2,5]
   + 0.00390625 p[2,6] + 0.001953125 p[2,7] + 0.0625 p[3,1]
   + 0.03125 p[3,2] + 0.015625 p[3,3] + 0.0078125 p[3,4]
   + 0.00390625 p[3,5] + 0.001953125 p[3,6] + 9.765625e-04 p[3,7]
   + 0.03125 p[4,1] + 0.015625 p[4,2] + 0.0078125 p[4,3]
   + 0.00390625 p[4,4] + 0.001953125 p[4,5] + 9.765625e-04 p[4,6]
   + 4.8828125e-04 p[4,7] + 0.015625 p[5,1] + 0.0078125 p[5,2]
   + 0.00390625 p[5,3] + 0.001953125 p[5,4] + 9.765625e-04 p[5,5]
   + 4.8828125e-04 p[5,6] + 2.44140625e-04 p[5,7] <= 0.5194
 B_lb_0,_1: 0.25 p[1,2] + 0.1875 p[1,3] + 0.125 p[1,4] + 0.078125 p[1,5]
   + 0.046875 p[1,6] + 0.02734375 p[1,7] + 0.125 p[2,2] + 0.09375 p[2,3]
   + 0.0625 p[2,4] + 0.0390625 p[2,5] + 0.0234375 p[2,6]
   + 0.013671875 p[2,7] + 0.0625 p[3,2] + 0.046875 p[3,3] + 0.03125 p[3,4]
   + 0.01953125 p[3,5] + 0.01171875 p[3,6] + 0.0068359375 p[3,7]
   + 0.03125 p[4,2] + 0.0234375 p[4,3] + 0.015625 p[4,4]
   + 0.009765625 p[4,5] + 0.005859375 p[4,6] + 0.00341796875 p[4,7]
   + 0.015625 p[5,2] + 0.01171875 p[5,3] + 0.0078125 p[5,4]
   + 0.0048828125 p[5,5] + 0.0029296875 p[5,6] + 0.001708984375 p[5,7]
   >= -0.0379516666666667
 B_ub_0,_1: 0.25 p[1,2] + 0.1875 p[1,3] + 0.125 p[1,4] + 0.078125 p[1,5]
   + 0.046875 p[1,6] + 0.02734375 p[1,7] + 0.125 p[2,2] + 0.09375 p[2,3]
   + 0.0625 p[2,4] + 0.0390625 p[2,5] + 0.0234375 p[2,6]
   + 0.013671875 p[2,7] + 0.0625 p[3,2] + 0.046875 p[3,3] + 0.03125 p[3,4]
   + 0.01953125 p[3,5] + 0.01171875 p[3,6] + 0.0068359375 p[3,7]
   + 0.03125 p[4,2] + 0.0234375 p[4,3] + 0.015625 p[4,4]
   + 0.009765625 p[4,5] + 0.005859375 p[4,6] + 0.00341796875 p[4,7]
   + 0.015625 p[5,2] + 0.01171875 p[5,3] + 0.0078125 p[5,4]
   + 0.0048828125 p[5,5] + 0.0029296875 p[5,6] + 0.001708984375 p[5,7]
   <= 0.1844
 B_lb_0,_2: 0.1875 p[1,3] + 0.1875 p[1,4] + 0.15625 p[1,5]
   + 0.1171875 p[1,6] + 0.08203125 p[1,7] + 0.09375 p[2,3] + 0.09375 p[2,4]
   + 0.078125 p[2,5] + 0.05859375 p[2,6] + 0.041015625 p[2,7]
   + 0.046875 p[3,3] + 0.046875 p[3,4] + 0.0390625 p[3,5]
   + 0.029296875 p[3,6] + 0.0205078125 p[3,7] + 0.0234375 p[4,3]
   + 0.0234375 p[4,4] + 0.01953125 p[4,5] + 0.0146484375 p[4,6]
   + 0.01025390625 p[4,7] + 0.01171875 p[5,3] + 0.01171875 p[5,4]
   + 0.009765625 p[5,5] + 0.00732421875 p[5,6] + 0.005126953125 p[5,7]
   >= -0.1745516666666667
 B_ub_0,_2: 0.1875 p[1,3] + 0.1875 p[1,4] + 0.15625 p[1,5]
   + 0.1171875 p[1,6] + 0.08203125 p[1,7] + 0.09375 p[2,3] + 0.09375 p[2,4]
   + 0.078125 p[2,5] + 0.05859375 p[2,6] + 0.041015625 p[2,7]
   + 0.046875 p[3,3] + 0.046875 p[3,4] + 0.0390625 p[3,5]
   + 0.029296875 p[3,6] + 0.0205078125 p[3,7] + 0.0234375 p[4,3]
   + 0.0234375 p[4,4] + 0.01953125 p[4,5] + 0.0146484375 p[4,6]
   + 0.01025390625 p[4,7] + 0.01171875 p[5,3] + 0.01171875 p[5,4]
   + 0.009765625 p[5,5] + 0.00732421875 p[5,6] + 0.005126953125 p[5,7]
   <= 0.036405
 B_lb_0,_3: 0.125 p[1,4] + 0.15625 p[1,5] + 0.15625 p[1,6]
   + 0.13671875 p[1,7] + 0.0625 p[2,4] + 0.078125 p[2,5] + 0.078125 p[2,6]
   + 0.068359375 p[2,7] + 0.03125 p[3,4] + 0.0390625 p[3,5]
   + 0.0390625 p[3,6] + 0.0341796875 p[3,7] + 0.015625 p[4,4]
   + 0.01953125 p[4,5] + 0.01953125 p[4,6] + 0.01708984375 p[4,7]
   + 0.0078125 p[5,4] + 0.009765625 p[5,5] + 0.009765625 p[5,6]
   + 0.008544921875 p[5,7] >= -0.1993516666666666
 B_ub_0,_3: 0.125 p[1,4] + 0.15625 p[1,5] + 0.15625 p[1,6]
   + 0.13671875 p[1,7] + 0.0625 p[2,4] + 0.078125 p[2,5] + 0.078125 p[2,6]
   + 0.068359375 p[2,7] + 0.03125 p[3,4] + 0.0390625 p[3,5]
   + 0.0390625 p[3,6] + 0.0341796875 p[3,7] + 0.015625 p[4,4]
   + 0.01953125 p[4,5] + 0.01953125 p[4,6] + 0.01708984375 p[4,7]
   + 0.0078125 p[5,4] + 0.009765625 p[5,5] + 0.009765625 p[5,6]
   + 0.008544921875 p[5,7] <= 0.0054
 B_lb_1,_0: 0.25 p[2,1] + 0.125 p[2,2] + 0.0625 p[2,3] + 0.03125 p[2,4]
   + 0.015625 p[2,5] + 0.0078125 p[2,6] + 0.00390625 p[2,7] + 0.1875 p[3,1]
   + 0.09375 p[3,2] + 0.046875 p[3,3] + 0.0234375 p[3,4]
   + 0.01171875 p[3,5] + 0.005859375 p[3,6] + 0.0029296875 p[3,7]
   + 0.125 p[4,1] + 0.0625 p[4,2] + 0.03125 p[4,3] + 0.015625 p[4,4]
   + 0.0078125 p[4,5] + 0.00390625 p[4,6] + 0.001953125 p[4,7]
   + 0.078125 p[5,1] + 0.0390625 p[5,2] + 0.01953125 p[5,3]
   + 0.009765625 p[5,4] + 0.0048828125 p[5,5] + 0.00244140625 p[5,6]
   + 0.001220703125 p[5,7] >= -0.0285516666666666
 B_ub_1,_0: 0.25 p[2,1] + 0.125 p[2,2] + 0.0625 p[2,3] + 0.03125 p[2,4]
   + 0.015625 p[2,5] + 0.0078125 p[2,6] + 0.00390625 p[2,7] + 0.1875 p[3,1]
   + 0.09375 p[3,2] + 0.046875 p[3,3] + 0.0234375 p[3,4]
   + 0.01171875 p[3,5] + 0.005859375 p[3,6] + 0.0029296875 p[3,7]
   + 0.125 p[4,1] + 0.0625 p[4,2] + 0.03125 p[4,3] + 0.015625 p[4,4]
   + 0.0078125 p[4,5] + 0.00390625 p[4,6] + 0.001953125 p[4,7]
   + 0.078125 p[5,1] + 0.0390625 p[5,2] + 0.01953125 p[5,3]
   + 0.009765625 p[5,4] + 0.0048828125 p[5,5] + 0.00244140625 p[5,6]
   + 0.001220703125 p[5,7] <= 0.1938
 B_lb_1,_1: 0.25 p[2,2] + 0.1875 p[2,3] + 0.125 p[2,4] + 0.078125 p[2,5]
   + 0.046875 p[2,6] + 0.02734375 p[2,7] + 0.1875 p[3,2] + 0.140625 p[3,3]
   + 0.09375 p[3,4] + 0.05859375 p[3,5] + 0.03515625 p[3,6]
   + 0.0205078125 p[3,7] + 0.125 p[4,2] + 0.09375 p[4,3] + 0.0625 p[4,4]
   + 0.0390625 p[4,5] + 0.0234375 p[4,6] + 0.013671875 p[4,7]
   + 0.078125 p[5,2] + 0.05859375 p[5,3] + 0.0390625 p[5,4]
   + 0.0244140625 p[5,5] + 0.0146484375 p[5,6] + 0.008544921875 p[5,7]
   >= -0.1587516666666667
 B_ub_1,_1: 0.25 p[2,2] + 0.1875 p[2,3] + 0.125 p[2,4] + 0.078125 p[2,5]
   + 0.046875 p[2,6] + 0.02734375 p[2,7] + 0.1875 p[3,2] + 0.140625 p[3,3]
   + 0.09375 p[3,4] + 0.05859375 p[3,5] + 0.03515625 p[3,6]
   + 0.0205078125 p[3,7] + 0.125 p[4,2] + 0.09375 p[4,3] + 0.0625 p[4,4]
   + 0.0390625 p[4,5] + 0.0234375 p[4,6] + 0.013671875 p[4,7]
   + 0.078125 p[5,2] + 0.05859375 p[5,3] + 0.0390625 p[5,4]
   + 0.0244140625 p[5,5] + 0.0146484375 p[5,6] + 0.008544921875 p[5,7]
   <= 0.0548
 B_lb_1,_2: 0.1875 p[2,3] + 0.1875 p[2,4] + 0.15625 p[2,5]
   + 0.1171875 p[2,6] + 0.08203125 p[2,7] + 0.140625 p[3,3]
   + 0.140625 p[3,4] + 0.1171875 p[3,5] + 0.087890625 p[3,6]
   + 0.0615234375 p[3,7] + 0.09375 p[4,3] + 0.09375 p[4,4]
   + 0.078125 p[4,5] + 0.05859375 p[4,6] + 0.041015625 p[4,7]
   + 0.05859375 p[5,3] + 0.05859375 p[5,4] + 0.048828125 p[5,5]
   + 0.03662109375 p[5,6] + 0.025634765625 p[5,7] >= -0.1981516666666666
 B_ub_1,_2: 0.1875 p[2,3] + 0.1875 p[2,4] + 0.15625 p[2,5]
   + 0.1171875 p[2,6] + 0.08203125 p[2,7] + 0.140625 p[3,3]
   + 0.140625 p[3,4] + 0.1171875 p[3,5] + 0.087890625 p[3,6]
   + 0.0615234375 p[3,7] + 0.09375 p[4,3] + 0.09375 p[4,4]
   + 0.078125 p[4,5] + 0.05859375 p[4,6] + 0.041015625 p[4,7]
   + 0.05859375 p[5,3] + 0.05859375 p[5,4] + 0.048828125 p[5,5]
   + 0.03662109375 p[5,6] + 0.025634765625 p[5,7] <= 0.007
 B_lb_1,_3: 0.125 p[2,4] + 0.15625 p[2,5] + 0.15625 p[2,6]
   + 0.13671875 p[2,7] + 0.09375 p[3,4] + 0.1171875 p[3,5]
   + 0.1171875 p[3,6] + 0.1025390625 p[3,7] + 0.0625 p[4,4]
   + 0.078125 p[4,5] + 0.078125 p[4,6] + 0.068359375 p[4,7]
   + 0.0390625 p[5,4] + 0.048828125 p[5,5] + 0.048828125 p[5,6]
   + 0.042724609375 p[5,7] >= -0.2013516666666667
 B_ub_1,_3: 0.125 p[2,4] + 0.15625 p[2,5] + 0.15625 p[2,6]
   + 0.13671875 p[2,7] + 0.09375 p[3,4] + 0.1171875 p[3,5]
   + 0.1171875 p[3,6] + 0.1025390625 p[3,7] + 0.0625 p[4,4]
   + 0.078125 p[4,5] + 0.078125 p[4,6] + 0.068359375 p[4,7]
   + 0.0390625 p[5,4] + 0.048828125 p[5,5] + 0.048828125 p[5,6]
   + 0.042724609375 p[5,7] <= 1
 B_lb_2,_0: 0.1875 p[3,1] + 0.09375 p[3,2] + 0.046875 p[3,3]
   + 0.0234375 p[3,4] + 0.01171875 p[3,5] + 0.005859375 p[3,6]
   + 0.0029296875 p[3,7] + 0.1875 p[4,1] + 0.09375 p[4,2] + 0.046875 p[4,3]
   + 0.0234375 p[4,4] + 0.01171875 p[4,5] + 0.005859375 p[4,6]
   + 0.0029296875 p[4,7] + 0.15625 p[5,1] + 0.078125 p[5,2]
   + 0.0390625 p[5,3] + 0.01953125 p[5,4] + 0.009765625 p[5,5]
   + 0.0048828125 p[5,6] + 0.00244140625 p[5,7] >= -0.1713516666666667
 B_ub_2,_0: 0.1875 p[3,1] + 0.09375 p[3,2] + 0.046875 p[3,3]
   + 0.0234375 p[3,4] + 0.01171875 p[3,5] + 0.005859375 p[3,6]
   + 0.0029296875 p[3,7] + 0.1875 p[4,1] + 0.09375 p[4,2] + 0.046875 p[4,3]
   + 0.0234375 p[4,4] + 0.01171875 p[4,5] + 0.005859375 p[4,6]
   + 0.0029296875 p[4,7] + 0.15625 p[5,1] + 0.078125 p[5,2]
   + 0.0390625 p[5,3] + 0.01953125 p[5,4] + 0.009765625 p[5,5]
   + 0.0048828125 p[5,6] + 0.00244140625 p[5,7] <= 0.0402
 B_lb_2,_1: 0.1875 p[3,2] + 0.140625 p[3,3] + 0.09375 p[3,4]
   + 0.05859375 p[3,5] + 0.03515625 p[3,6] + 0.0205078125 p[3,7]
   + 0.1875 p[4,2] + 0.140625 p[4,3] + 0.09375 p[4,4] + 0.05859375 p[4,5]
   + 0.03515625 p[4,6] + 0.0205078125 p[4,7] + 0.15625 p[5,2]
   + 0.1171875 p[5,3] + 0.078125 p[5,4] + 0.048828125 p[5,5]
   + 0.029296875 p[5,6] + 0.01708984375 p[5,7] >= -0.1971516666666666
 B_ub_2,_1: 0.1875 p[3,2] + 0.140625 p[3,3] + 0.09375 p[3,4]
   + 0.05859375 p[3,5] + 0.03515625 p[3,6] + 0.0205078125 p[3,7]
   + 0.1875 p[4,2] + 0.140625 p[4,3] + 0.09375 p[4,4] + 0.05859375 p[4,5]
   + 0.03515625 p[4,6] + 0.0205078125 p[4,7] + 0.15625 p[5,2]
   + 0.1171875 p[5,3] + 0.078125 p[5,4] + 0.048828125 p[5,5]
   + 0.029296875 p[5,6] + 0.01708984375 p[5,7] <= 0.0088
 B_lb_2,_2: 0.140625 p[3,3] + 0.140625 p[3,4] + 0.1171875 p[3,5]
   + 0.087890625 p[3,6] + 0.0615234375 p[3,7] + 0.140625 p[4,3]
   + 0.140625 p[4,4] + 0.1171875 p[4,5] + 0.087890625 p[4,6]
   + 0.0615234375 p[4,7] + 0.1171875 p[5,3] + 0.1171875 p[5,4]
   + 0.09765625 p[5,5] + 0.0732421875 p[5,6] + 0.05126953125 p[5,7]
   >= -0.2013516666666667
 B_ub_2,_2: 0.140625 p[3,3] + 0.140625 p[3,4] + 0.1171875 p[3,5]
   + 0.087890625 p[3,6] + 0.0615234375 p[3,7] + 0.140625 p[4,3]
   + 0.140625 p[4,4] + 0.1171875 p[4,5] + 0.087890625 p[4,6]
   + 0.0615234375 p[4,7] + 0.1171875 p[5,3] + 0.1171875 p[5,4]
   + 0.09765625 p[5,5] + 0.0732421875 p[5,6] + 0.05126953125 p[5,7] <= 1
 B_lb_2,_3: 0.09375 p[3,4] + 0.1171875 p[3,5] + 0.1171875 p[3,6]
   + 0.1025390625 p[3,7] + 0.09375 p[4,4] + 0.1171875 p[4,5]
   + 0.1171875 p[4,6] + 0.1025390625 p[4,7] + 0.078125 p[5,4]
   + 0.09765625 p[5,5] + 0.09765625 p[5,6] + 0.08544921875 p[5,7]
   >= -0.2013516666666667
 B_ub_2,_3: 0.09375 p[3,4] + 0.1171875 p[3,5] + 0.1171875 p[3,6]
   + 0.1025390625 p[3,7] + 0.09375 p[4,4] + 0.1171875 p[4,5]
   + 0.1171875 p[4,6] + 0.1025390625 p[4,7] + 0.078125 p[5,4]
   + 0.09765625 p[5,5] + 0.09765625 p[5,6] + 0.08544921875 p[5,7] <= 1
 Distribution: p[0,0] + p[0,1] + p[0,2] + p[0,3] + p[0,4] + p[0,5] + p[0,6]
   + p[0,7] + p[1,0] + p[1,1] + p[1,2] + p[1,3] + p[1,4] + p[1,5] + p[1,6]
   + p[1,7] + p[2,0] + p[2,1] + p[2,2] + p[2,3] + p[2,4] + p[2,5] + p[2,6]
   + p[2,7] + p[3,0] + p[3,1] + p[3,2] + p[3,3] + p[3,4] + p[3,5] + p[3,6]
   + p[3,7] + p[4,0] + p[4,1] + p[4,2] + p[4,3] + p[4,4] + p[4,5] + p[4,6]
   + p[4,7] + p[5,0] + p[5,1] + p[5,2] + p[5,3] + p[5,4] + p[5,5] + p[5,6]
   + p[5,7] <= 1
 Equation_0,_0: [ - p[0,0] * k_tx_1 - p[0,0] * k_tx_2 + p[0,1] * k_deg_2
   + p[1,0] * k_deg_1 + p[1,1] * k_reg ] = 0
 Equation_0,_1: [ p[0,0] * k_tx_2 - p[0,1] * k_tx_1 - p[0,1] * k_tx_2
   - p[0,1] * k_deg_2 + 2 p[0,2] * k_deg_2 + p[1,1] * k_deg_1
   + 2 p[1,2] * k_reg ] = 0
 Equation_0,_2: [ p[0,1] * k_tx_2 - p[0,2] * k_tx_1 - p[0,2] * k_tx_2
   - 2 p[0,2] * k_deg_2 + 3 p[0,3] * k_deg_2 + p[1,2] * k_deg_1
   + 3 p[1,3] * k_reg ] = 0
 Equation_0,_3: [ p[0,2] * k_tx_2 - p[0,3] * k_tx_1 - p[0,3] * k_tx_2
   - 3 p[0,3] * k_deg_2 + 4 p[0,4] * k_deg_2 + p[1,3] * k_deg_1
   + 4 p[1,4] * k_reg ] = 0
 Equation_0,_4: [ p[0,3] * k_tx_2 - p[0,4] * k_tx_1 - p[0,4] * k_tx_2
   - 4 p[0,4] * k_deg_2 + 5 p[0,5] * k_deg_2 + p[1,4] * k_deg_1
   + 5 p[1,5] * k_reg ] = 0
 Equation_0,_5: [ p[0,4] * k_tx_2 - p[0,5] * k_tx_1 - p[0,5] * k_tx_2
   - 5 p[0,5] * k_deg_2 + 6 p[0,6] * k_deg_2 + p[1,5] * k_deg_1
   + 6 p[1,6] * k_reg ] = 0
 Equation_0,_6: [ p[0,5] * k_tx_2 - p[0,6] * k_tx_1 - p[0,6] * k_tx_2
   - 6 p[0,6] * k_deg_2 + 7 p[0,7] * k_deg_2 + p[1,6] * k_deg_1
   + 7 p[1,7] * k_reg ] = 0
 Equation_1,_0: [ p[0,0] * k_tx_1 - p[1,0] * k_tx_1 - p[1,0] * k_tx_2
   - p[1,0] * k_deg_1 + p[1,1] * k_deg_2 + 2 p[2,0] * k_deg_1
   + 2 p[2,1] * k_reg ] = 0
 Equation_1,_1: [ p[0,1] * k_tx_1 + p[1,0] * k_tx_2 - p[1,1] * k_tx_1
   - p[1,1] * k_tx_2 - p[1,1] * k_deg_1 - p[1,1] * k_deg_2 - p[1,1] * k_reg
   + 2 p[1,2] * k_deg_2 + 2 p[2,1] * k_deg_1 + 4 p[2,2] * k_reg ] = 0
 Equation_1,_2: [ p[0,2] * k_tx_1 + p[1,1] * k_tx_2 - p[1,2] * k_tx_1
   - p[1,2] * k_tx_2 - p[1,2] * k_deg_1 - 2 p[1,2] * k_deg_2
   - 2 p[1,2] * k_reg + 3 p[1,3] * k_deg_2 + 2 p[2,2] * k_deg_1
   + 6 p[2,3] * k_reg ] = 0
 Equation_1,_3: [ p[0,3] * k_tx_1 + p[1,2] * k_tx_2 - p[1,3] * k_tx_1
   - p[1,3] * k_tx_2 - p[1,3] * k_deg_1 - 3 p[1,3] * k_deg_2
   - 3 p[1,3] * k_reg + 4 p[1,4] * k_deg_2 + 2 p[2,3] * k_deg_1
   + 8 p[2,4] * k_reg ] = 0
 Equation_1,_4: [ p[0,4] * k_tx_1 + p[1,3] * k_tx_2 - p[1,4] * k_tx_1
   - p[1,4] * k_tx_2 - p[1,4] * k_deg_1 - 4 p[1,4] * k_deg_2
   - 4 p[1,4] * k_reg + 5 p[1,5] * k_deg_2 + 2 p[2,4] * k_deg_1
   + 10 p[2,5] * k_reg ] = 0
 Equation_1,_5: [ p[0,5] * k_tx_1 + p[1,4] * k_tx_2 - p[1,5] * k_tx_1
   - p[1,5] * k_tx_2 - p[1,5] * k_deg_1 - 5 p[1,5] * k_deg_2
   - 5 p[1,5] * k_reg + 6 p[1,6] * k_deg_2 + 2 p[2,5] * k_deg_1
   + 12 p[2,6] * k_reg ] = 0
 Equation_1,_6: [ p[0,6] * k_tx_1 + p[1,5] * k_tx_2 - p[1,6] * k_tx_1
   - p[1,6] * k_tx_2 - p[1,6] * k_deg_1 - 6 p[1,6] * k_deg_2
   - 6 p[1,6] * k_reg + 7 p[1,7] * k_deg_2 + 2 p[2,6] * k_deg_1
   + 14 p[2,7] * k_reg ] = 0
 Equation_2,_0: [ p[1,0] * k_tx_1 - p[2,0] * k_tx_1 - p[2,0] * k_tx_2
   - 2 p[2,0] * k_deg_1 + p[2,1] * k_deg_2 + 3 p[3,0] * k_deg_1
   + 3 p[3,1] * k_reg ] = 0
 Equation_2,_1: [ p[1,1] * k_tx_1 + p[2,0] * k_tx_2 - p[2,1] * k_tx_1
   - p[2,1] * k_tx_2 - 2 p[2,1] * k_deg_1 - p[2,1] * k_deg_2
   - 2 p[2,1] * k_reg + 2 p[2,2] * k_deg_2 + 3 p[3,1] * k_deg_1
   + 6 p[3,2] * k_reg ] = 0
 Equation_2,_2: [ p[1,2] * k_tx_1 + p[2,1] * k_tx_2 - p[2,2] * k_tx_1
   - p[2,2] * k_tx_2 - 2 p[2,2] * k_deg_1 - 2 p[2,2] * k_deg_2
   - 4 p[2,2] * k_reg + 3 p[2,3] * k_deg_2 + 3 p[3,2] * k_deg_1
   + 9 p[3,3] * k_reg ] = 0
 Equation_2,_3: [ p[1,3] * k_tx_1 + p[2,2] * k_tx_2 - p[2,3] * k_tx_1
   - p[2,3] * k_tx_2 - 2 p[2,3] * k_deg_1 - 3 p[2,3] * k_deg_2
   - 6 p[2,3] * k_reg + 4 p[2,4] * k_deg_2 + 3 p[3,3] * k_deg_1
   + 12 p[3,4] * k_reg ] = 0
 Equation_2,_4: [ p[1,4] * k_tx_1 + p[2,3] * k_tx_2 - p[2,4] * k_tx_1
   - p[2,4] * k_tx_2 - 2 p[2,4] * k_deg_1 - 4 p[2,4] * k_deg_2
   - 8 p[2,4] * k_reg + 5 p[2,5] * k_deg_2 + 3 p[3,4] * k_deg_1
   + 15 p[3,5] * k_reg ] = 0
 Equation_2,_5: [ p[1,5] * k_tx_1 + p[2,4] * k_tx_2 - p[2,5] * k_tx_1
   - p[2,5] * k_tx_2 - 2 p[2,5] * k_deg_1 - 5 p[2,5] * k_deg_2
   - 10 p[2,5] * k_reg + 6 p[2,6] * k_deg_2 + 3 p[3,5] * k_deg_1
   + 18 p[3,6] * k_reg ] = 0
 Equation_2,_6: [ p[1,6] * k_tx_1 + p[2,5] * k_tx_2 - p[2,6] * k_tx_1
   - p[2,6] * k_tx_2 - 2 p[2,6] * k_deg_1 - 6 p[2,6] * k_deg_2
   - 12 p[2,6] * k_reg + 7 p[2,7] * k_deg_2 + 3 p[3,6] * k_deg_1
   + 21 p[3,7] * k_reg ] = 0
 Equation_3,_0: [ p[2,0] * k_tx_1 - p[3,0] * k_tx_1 - p[3,0] * k_tx_2
   - 3 p[3,0] * k_deg_1 + p[3,1] * k_deg_2 + 4 p[4,0] * k_deg_1
   + 4 p[4,1] * k_reg ] = 0
 Equation_3,_1: [ p[2,1] * k_tx_1 + p[3,0] * k_tx_2 - p[3,1] * k_tx_1
   - p[3,1] * k_tx_2 - 3 p[3,1] * k_deg_1 - p[3,1] * k_deg_2
   - 3 p[3,1] * k_reg + 2 p[3,2] * k_deg_2 + 4 p[4,1] * k_deg_1
   + 8 p[4,2] * k_reg ] = 0
 Equation_3,_2: [ p[2,2] * k_tx_1 + p[3,1] * k_tx_2 - p[3,2] * k_tx_1
   - p[3,2] * k_tx_2 - 3 p[3,2] * k_deg_1 - 2 p[3,2] * k_deg_2
   - 6 p[3,2] * k_reg + 3 p[3,3] * k_deg_2 + 4 p[4,2] * k_deg_1
   + 12 p[4,3] * k_reg ] = 0
 Equation_3,_3: [ p[2,3] * k_tx_1 + p[3,2] * k_tx_2 - p[3,3] * k_tx_1
   - p[3,3] * k_tx_2 - 3 p[3,3] * k_deg_1 - 3 p[3,3] * k_deg_2
   - 9 p[3,3] * k_reg + 4 p[3,4] * k_deg_2 + 4 p[4,3] * k_deg_1
   + 16 p[4,4] * k_reg ] = 0
 Equation_3,_4: [ p[2,4] * k_tx_1 + p[3,3] * k_tx_2 - p[3,4] * k_tx_1
   - p[3,4] * k_tx_2 - 3 p[3,4] * k_deg_1 - 4 p[3,4] * k_deg_2
   - 12 p[3,4] * k_reg + 5 p[3,5] * k_deg_2 + 4 p[4,4] * k_deg_1
   + 20 p[4,5] * k_reg ] = 0
 Equation_3,_5: [ p[2,5] * k_tx_1 + p[3,4] * k_tx_2 - p[3,5] * k_tx_1
   - p[3,5] * k_tx_2 - 3 p[3,5] * k_deg_1 - 5 p[3,5] * k_deg_2
   - 15 p[3,5] * k_reg + 6 p[3,6] * k_deg_2 + 4 p[4,5] * k_deg_1
   + 24 p[4,6] * k_reg ] = 0
 Equation_3,_6: [ p[2,6] * k_tx_1 + p[3,5] * k_tx_2 - p[3,6] * k_tx_1
   - p[3,6] * k_tx_2 - 3 p[3,6] * k_deg_1 - 6 p[3,6] * k_deg_2
   - 18 p[3,6] * k_reg + 7 p[3,7] * k_deg_2 + 4 p[4,6] * k_deg_1
   + 28 p[4,7] * k_reg ] = 0
 Equation_4,_0: [ p[3,0] * k_tx_1 - p[4,0] * k_tx_1 - p[4,0] * k_tx_2
   - 4 p[4,0] * k_deg_1 + p[4,1] * k_deg_2 + 5 p[5,0] * k_deg_1
   + 5 p[5,1] * k_reg ] = 0
 Equation_4,_1: [ p[3,1] * k_tx_1 + p[4,0] * k_tx_2 - p[4,1] * k_tx_1
   - p[4,1] * k_tx_2 - 4 p[4,1] * k_deg_1 - p[4,1] * k_deg_2
   - 4 p[4,1] * k_reg + 2 p[4,2] * k_deg_2 + 5 p[5,1] * k_deg_1
   + 10 p[5,2] * k_reg ] = 0
 Equation_4,_2: [ p[3,2] * k_tx_1 + p[4,1] * k_tx_2 - p[4,2] * k_tx_1
   - p[4,2] * k_tx_2 - 4 p[4,2] * k_deg_1 - 2 p[4,2] * k_deg_2
   - 8 p[4,2] * k_reg + 3 p[4,3] * k_deg_2 + 5 p[5,2] * k_deg_1
   + 15 p[5,3] * k_reg ] = 0
 Equation_4,_3: [ p[3,3] * k_tx_1 + p[4,2] * k_tx_2 - p[4,3] * k_tx_1
   - p[4,3] * k_tx_2 - 4 p[4,3] * k_deg_1 - 3 p[4,3] * k_deg_2
   - 12 p[4,3] * k_reg + 4 p[4,4] * k_deg_2 + 5 p[5,3] * k_deg_1
   + 20 p[5,4] * k_reg ] = 0
 Equation_4,_4: [ p[3,4] * k_tx_1 + p[4,3] * k_tx_2 - p[4,4] * k_tx_1
   - p[4,4] * k_tx_2 - 4 p[4,4] * k_deg_1 - 4 p[4,4] * k_deg_2
   - 16 p[4,4] * k_reg + 5 p[4,5] * k_deg_2 + 5 p[5,4] * k_deg_1
   + 25 p[5,5] * k_reg ] = 0
 Equation_4,_5: [ p[3,5] * k_tx_1 + p[4,4] * k_tx_2 - p[4,5] * k_tx_1
   - p[4,5] * k_tx_2 - 4 p[4,5] * k_deg_1 - 5 p[4,5] * k_deg_2
   - 20 p[4,5] * k_reg + 6 p[4,6] * k_deg_2 + 5 p[5,5] * k_deg_1
   + 30 p[5,6] * k_reg ] = 0
 Equation_4,_6: [ p[3,6] * k_tx_1 + p[4,5] * k_tx_2 - p[4,6] * k_tx_1
   - p[4,6] * k_tx_2 - 4 p[4,6] * k_deg_1 - 6 p[4,6] * k_deg_2
   - 24 p[4,6] * k_reg + 7 p[4,7] * k_deg_2 + 5 p[5,6] * k_deg_1
   + 35 p[5,7] * k_reg ] = 0
Bounds
 p[0,0] <= 1
 p[0,1] <= 1
 p[0,2] <= 1
 p[0,3] <= 1
 p[0,4] <= 1
 p[0,5] <= 1
 p[0,6] <= 1
 p[0,7] <= 1
 p[1,0] <= 1
 p[1,1] <= 1
 p[1,2] <= 1
 p[1,3] <= 1
 p[1,4] <= 1
 p[1,5] <= 1
 p[1,6] <= 1
 p[1,7] <= 1
 p[2,0] <= 1
 p[2,1] <= 1
 p[2,2] <= 1
 p[2,3] <= 1
 p[2,4] <= 1
 p[2,5] <= 1
 p[2,6] <= 1
 p[2,7] <= 1
 p[3,0] <= 1
 p[3,1] <= 1
 p[3,2] <= 1
 p[3,3] <= 1
 p[3,4] <= 1
 p[3,5] <= 1
 p[3,6] <= 1
 p[3,7] <= 1
 p[4,0] <= 1
 p[4,1] <= 1
 p[4,2] <= 1
 p[4,3] <= 1
 p[4,4] <= 1
 p[4,5] <= 1
 p[4,6] <= 1
 p[4,7] <= 1
 p[5,0] <= 1
 p[5,1] <= 1
 p[5,2] <= 1
 p[5,3] <= 1
 p[5,4] <= 1
 p[5,5] <= 1
 p[5,6] <= 1
 p[5,7] <= 1
 k_tx_1 <= 10
 k_tx_2 <= 10
 k_deg_1 <= 10
 k_deg_2 <= 10
 k_reg <= 10
End
